objective value:                                  -16
t_n_8                                               1 	(obj:-1)
t_n_223                                             1 	(obj:-1)
t_n_334                                             1 	(obj:-1)
t_n_474                                             1 	(obj:-1)
t_n_541                                             1 	(obj:-1)
t_n_549                                             1 	(obj:-1)
t_n_571                                             1 	(obj:-1)
t_n_639                                             1 	(obj:-1)
t_n_675                                             1 	(obj:-1)
t_n_711                                             1 	(obj:-1)
t_n_778                                             1 	(obj:-1)
t_n_782                                             1 	(obj:-1)
t_n_790                                             1 	(obj:-1)
t_n_874                                             1 	(obj:-1)
t_n_925                                             1 	(obj:-1)
t_n_972                                             1 	(obj:-1)
